c 0.015205144882202148 (encode time in sec)
p cnf 202 1048
1 2 3 4 0
1 2 -3 5 0
1 -2 3 4 0
1 -2 -3 5 0
-1 2 3 5 0
-1 2 -3 4 0
-1 -2 3 5 0
-1 -2 -3 4 0
6 7 8 9 0
6 7 -8 10 0
6 -7 8 9 0
6 -7 -8 10 0
-6 7 8 10 0
-6 7 -8 9 0
-6 -7 8 10 0
-6 -7 -8 9 0
11 12 13 14 0
11 12 -13 15 0
11 -12 13 14 0
11 -12 -13 15 0
-11 12 13 15 0
-11 12 -13 14 0
-11 -12 13 15 0
-11 -12 -13 14 0
16 17 18 1 2 3 6 7 8 20 0
16 17 18 1 2 3 6 7 -8 20 0
16 17 18 1 2 3 6 -7 8 19 0
16 17 18 1 2 3 6 -7 -8 22 0
16 17 18 1 2 3 -6 7 8 0
16 17 18 1 2 3 -6 7 -8 21 0
16 17 18 1 2 3 -6 -7 8 0
16 17 18 1 2 3 -6 -7 -8 0
16 17 18 1 2 -3 6 7 8 20 0
16 17 18 1 2 -3 6 7 -8 24 0
16 17 18 1 2 -3 6 -7 8 0
16 17 18 1 2 -3 6 -7 -8 0
16 17 18 1 2 -3 -6 7 8 0
16 17 18 1 2 -3 -6 7 -8 0
16 17 18 1 2 -3 -6 -7 8 0
16 17 18 1 2 -3 -6 -7 -8 0
16 17 18 1 -2 3 6 7 8 25 0
16 17 18 1 -2 3 6 7 -8 0
16 17 18 1 -2 3 6 -7 8 45 0
16 17 18 1 -2 3 6 -7 -8 0
16 17 18 1 -2 3 -6 7 8 0
16 17 18 1 -2 3 -6 7 -8 0
16 17 18 1 -2 3 -6 -7 8 0
16 17 18 1 -2 3 -6 -7 -8 0
16 17 18 1 -2 -3 6 7 8 19 0
16 17 18 1 -2 -3 6 7 -8 0
16 17 18 1 -2 -3 6 -7 8 0
16 17 18 1 -2 -3 6 -7 -8 0
16 17 18 1 -2 -3 -6 7 8 0
16 17 18 1 -2 -3 -6 7 -8 0
16 17 18 1 -2 -3 -6 -7 8 0
16 17 18 1 -2 -3 -6 -7 -8 0
16 17 18 -1 2 3 6 7 8 26 0
16 17 18 -1 2 3 6 7 -8 0
16 17 18 -1 2 3 6 -7 8 0
16 17 18 -1 2 3 6 -7 -8 0
16 17 18 -1 2 3 -6 7 8 0
16 17 18 -1 2 3 -6 7 -8 0
16 17 18 -1 2 3 -6 -7 8 0
16 17 18 -1 2 3 -6 -7 -8 0
16 17 18 -1 2 -3 6 7 8 27 0
16 17 18 -1 2 -3 6 7 -8 0
16 17 18 -1 2 -3 6 -7 8 0
16 17 18 -1 2 -3 6 -7 -8 0
16 17 18 -1 2 -3 -6 7 8 0
16 17 18 -1 2 -3 -6 7 -8 0
16 17 18 -1 2 -3 -6 -7 8 0
16 17 18 -1 2 -3 -6 -7 -8 0
16 17 18 -1 -2 3 6 7 8 55 0
16 17 18 -1 -2 3 6 7 -8 0
16 17 18 -1 -2 3 6 -7 8 0
16 17 18 -1 -2 3 6 -7 -8 0
16 17 18 -1 -2 3 -6 7 8 0
16 17 18 -1 -2 3 -6 7 -8 0
16 17 18 -1 -2 3 -6 -7 8 0
16 17 18 -1 -2 3 -6 -7 -8 0
16 17 18 -1 -2 -3 6 7 8 55 0
16 17 18 -1 -2 -3 6 7 -8 0
16 17 18 -1 -2 -3 6 -7 8 0
16 17 18 -1 -2 -3 6 -7 -8 0
16 17 18 -1 -2 -3 -6 7 8 0
16 17 18 -1 -2 -3 -6 7 -8 0
16 17 18 -1 -2 -3 -6 -7 8 0
16 17 18 -1 -2 -3 -6 -7 -8 0
16 17 -18 1 2 3 6 7 8 0
16 17 -18 1 2 3 6 7 -8 0
16 17 -18 1 2 3 6 -7 8 28 0
16 17 -18 1 2 3 6 -7 -8 29 0
16 17 -18 1 2 3 -6 7 8 0
16 17 -18 1 2 3 -6 7 -8 21 0
16 17 -18 1 2 3 -6 -7 8 0
16 17 -18 1 2 3 -6 -7 -8 0
16 17 -18 1 2 -3 6 7 8 0
16 17 -18 1 2 -3 6 7 -8 24 0
16 17 -18 1 2 -3 6 -7 8 33 0
16 17 -18 1 2 -3 6 -7 -8 22 0
16 17 -18 1 2 -3 -6 7 8 61 0
16 17 -18 1 2 -3 -6 7 -8 0
16 17 -18 1 2 -3 -6 -7 8 0
16 17 -18 1 2 -3 -6 -7 -8 0
16 17 -18 1 -2 3 6 7 8 46 0
16 17 -18 1 -2 3 6 7 -8 20 0
16 17 -18 1 -2 3 6 -7 8 66 0
16 17 -18 1 -2 3 6 -7 -8 71 0
16 17 -18 1 -2 3 -6 7 8 0
16 17 -18 1 -2 3 -6 7 -8 0
16 17 -18 1 -2 3 -6 -7 8 0
16 17 -18 1 -2 3 -6 -7 -8 0
16 17 -18 1 -2 -3 6 7 8 28 0
16 17 -18 1 -2 -3 6 7 -8 65 0
16 17 -18 1 -2 -3 6 -7 8 59 0
16 17 -18 1 -2 -3 6 -7 -8 0
16 17 -18 1 -2 -3 -6 7 8 0
16 17 -18 1 -2 -3 -6 7 -8 0
16 17 -18 1 -2 -3 -6 -7 8 0
16 17 -18 1 -2 -3 -6 -7 -8 0
16 17 -18 -1 2 3 6 7 8 68 0
16 17 -18 -1 2 3 6 7 -8 53 0
16 17 -18 -1 2 3 6 -7 8 0
16 17 -18 -1 2 3 6 -7 -8 0
16 17 -18 -1 2 3 -6 7 8 0
16 17 -18 -1 2 3 -6 7 -8 0
16 17 -18 -1 2 3 -6 -7 8 0
16 17 -18 -1 2 3 -6 -7 -8 0
16 17 -18 -1 2 -3 6 7 8 41 0
16 17 -18 -1 2 -3 6 7 -8 42 0
16 17 -18 -1 2 -3 6 -7 8 0
16 17 -18 -1 2 -3 6 -7 -8 0
16 17 -18 -1 2 -3 -6 7 8 0
16 17 -18 -1 2 -3 -6 7 -8 0
16 17 -18 -1 2 -3 -6 -7 8 0
16 17 -18 -1 2 -3 -6 -7 -8 0
16 17 -18 -1 -2 3 6 7 8 69 0
16 17 -18 -1 -2 3 6 7 -8 30 0
16 17 -18 -1 -2 3 6 -7 8 0
16 17 -18 -1 -2 3 6 -7 -8 0
16 17 -18 -1 -2 3 -6 7 8 0
16 17 -18 -1 -2 3 -6 7 -8 0
16 17 -18 -1 -2 3 -6 -7 8 0
16 17 -18 -1 -2 3 -6 -7 -8 0
16 17 -18 -1 -2 -3 6 7 8 47 0
16 17 -18 -1 -2 -3 6 7 -8 0
16 17 -18 -1 -2 -3 6 -7 8 0
16 17 -18 -1 -2 -3 6 -7 -8 0
16 17 -18 -1 -2 -3 -6 7 8 0
16 17 -18 -1 -2 -3 -6 7 -8 0
16 17 -18 -1 -2 -3 -6 -7 8 0
16 17 -18 -1 -2 -3 -6 -7 -8 0
16 -17 18 1 2 3 6 7 8 0
16 -17 18 1 2 3 6 7 -8 0
16 -17 18 1 2 3 6 -7 8 0
16 -17 18 1 2 3 6 -7 -8 30 0
16 -17 18 1 2 3 -6 7 8 54 0
16 -17 18 1 2 3 -6 7 -8 21 0
16 -17 18 1 2 3 -6 -7 8 31 0
16 -17 18 1 2 3 -6 -7 -8 46 0
16 -17 18 1 2 -3 6 7 8 0
16 -17 18 1 2 -3 6 7 -8 48 0
16 -17 18 1 2 -3 6 -7 8 24 0
16 -17 18 1 2 -3 6 -7 -8 29 0
16 -17 18 1 2 -3 -6 7 8 61 0
16 -17 18 1 2 -3 -6 7 -8 49 0
16 -17 18 1 2 -3 -6 -7 8 30 0
16 -17 18 1 2 -3 -6 -7 -8 0
16 -17 18 1 -2 3 6 7 8 0
16 -17 18 1 -2 3 6 7 -8 0
16 -17 18 1 -2 3 6 -7 8 36 0
16 -17 18 1 -2 3 6 -7 -8 50 0
16 -17 18 1 -2 3 -6 7 8 61 0
16 -17 18 1 -2 3 -6 7 -8 0
16 -17 18 1 -2 3 -6 -7 8 0
16 -17 18 1 -2 3 -6 -7 -8 0
16 -17 18 1 -2 -3 6 7 8 0
16 -17 18 1 -2 -3 6 7 -8 34 0
16 -17 18 1 -2 -3 6 -7 8 59 0
16 -17 18 1 -2 -3 6 -7 -8 73 0
16 -17 18 1 -2 -3 -6 7 8 0
16 -17 18 1 -2 -3 -6 7 -8 0
16 -17 18 1 -2 -3 -6 -7 8 0
16 -17 18 1 -2 -3 -6 -7 -8 0
16 -17 18 -1 2 3 6 7 8 0
16 -17 18 -1 2 3 6 7 -8 26 0
16 -17 18 -1 2 3 6 -7 8 60 0
16 -17 18 -1 2 3 6 -7 -8 42 0
16 -17 18 -1 2 3 -6 7 8 0
16 -17 18 -1 2 3 -6 7 -8 0
16 -17 18 -1 2 3 -6 -7 8 0
16 -17 18 -1 2 3 -6 -7 -8 0
16 -17 18 -1 2 -3 6 7 8 41 0
16 -17 18 -1 2 -3 6 7 -8 72 0
16 -17 18 -1 2 -3 6 -7 8 0
16 -17 18 -1 2 -3 6 -7 -8 0
16 -17 18 -1 2 -3 -6 7 8 0
16 -17 18 -1 2 -3 -6 7 -8 0
16 -17 18 -1 2 -3 -6 -7 8 0
16 -17 18 -1 2 -3 -6 -7 -8 0
16 -17 18 -1 -2 3 6 7 8 55 0
16 -17 18 -1 -2 3 6 7 -8 28 0
16 -17 18 -1 -2 3 6 -7 8 0
16 -17 18 -1 -2 3 6 -7 -8 0
16 -17 18 -1 -2 3 -6 7 8 0
16 -17 18 -1 -2 3 -6 7 -8 0
16 -17 18 -1 -2 3 -6 -7 8 0
16 -17 18 -1 -2 3 -6 -7 -8 0
16 -17 18 -1 -2 -3 6 7 8 55 0
16 -17 18 -1 -2 -3 6 7 -8 0
16 -17 18 -1 -2 -3 6 -7 8 0
16 -17 18 -1 -2 -3 6 -7 -8 0
16 -17 18 -1 -2 -3 -6 7 8 0
16 -17 18 -1 -2 -3 -6 7 -8 0
16 -17 18 -1 -2 -3 -6 -7 8 0
16 -17 18 -1 -2 -3 -6 -7 -8 0
16 -17 -18 1 2 3 6 7 8 0
16 -17 -18 1 2 3 6 7 -8 0
16 -17 -18 1 2 3 6 -7 8 0
16 -17 -18 1 2 3 6 -7 -8 0
16 -17 -18 1 2 3 -6 7 8 48 0
16 -17 -18 1 2 3 -6 7 -8 0
16 -17 -18 1 2 3 -6 -7 8 31 0
16 -17 -18 1 2 3 -6 -7 -8 0
16 -17 -18 1 2 -3 6 7 8 0
16 -17 -18 1 2 -3 6 7 -8 0
16 -17 -18 1 2 -3 6 -7 8 0
16 -17 -18 1 2 -3 6 -7 -8 30 0
16 -17 -18 1 2 -3 -6 7 8 50 0
16 -17 -18 1 2 -3 -6 7 -8 59 0
16 -17 -18 1 2 -3 -6 -7 8 30 0
16 -17 -18 1 2 -3 -6 -7 -8 0
16 -17 -18 1 -2 3 6 7 8 0
16 -17 -18 1 -2 3 6 7 -8 0
16 -17 -18 1 -2 3 6 -7 8 36 0
16 -17 -18 1 -2 3 6 -7 -8 50 0
16 -17 -18 1 -2 3 -6 7 8 61 0
16 -17 -18 1 -2 3 -6 7 -8 61 0
16 -17 -18 1 -2 3 -6 -7 8 0
16 -17 -18 1 -2 3 -6 -7 -8 0
16 -17 -18 1 -2 -3 6 7 8 0
16 -17 -18 1 -2 -3 6 7 -8 31 0
16 -17 -18 1 -2 -3 6 -7 8 59 0
16 -17 -18 1 -2 -3 6 -7 -8 59 0
16 -17 -18 1 -2 -3 -6 7 8 24 0
16 -17 -18 1 -2 -3 -6 7 -8 47 0
16 -17 -18 1 -2 -3 -6 -7 8 0
16 -17 -18 1 -2 -3 -6 -7 -8 0
16 -17 -18 -1 2 3 6 7 8 0
16 -17 -18 -1 2 3 6 7 -8 39 0
16 -17 -18 -1 2 3 6 -7 8 40 0
16 -17 -18 -1 2 3 6 -7 -8 33 0
16 -17 -18 -1 2 3 -6 7 8 35 0
16 -17 -18 -1 2 3 -6 7 -8 0
16 -17 -18 -1 2 3 -6 -7 8 0
16 -17 -18 -1 2 3 -6 -7 -8 0
16 -17 -18 -1 2 -3 6 7 8 0
16 -17 -18 -1 2 -3 6 7 -8 51 0
16 -17 -18 -1 2 -3 6 -7 8 19 0
16 -17 -18 -1 2 -3 6 -7 -8 0
16 -17 -18 -1 2 -3 -6 7 8 30 0
16 -17 -18 -1 2 -3 -6 7 -8 0
16 -17 -18 -1 2 -3 -6 -7 8 0
16 -17 -18 -1 2 -3 -6 -7 -8 0
16 -17 -18 -1 -2 3 6 7 8 0
16 -17 -18 -1 -2 3 6 7 -8 22 0
16 -17 -18 -1 -2 3 6 -7 8 59 0
16 -17 -18 -1 -2 3 6 -7 -8 39 0
16 -17 -18 -1 -2 3 -6 7 8 37 0
16 -17 -18 -1 -2 3 -6 7 -8 0
16 -17 -18 -1 -2 3 -6 -7 8 0
16 -17 -18 -1 -2 3 -6 -7 -8 0
16 -17 -18 -1 -2 -3 6 7 8 55 0
16 -17 -18 -1 -2 -3 6 7 -8 46 0
16 -17 -18 -1 -2 -3 6 -7 8 0
16 -17 -18 -1 -2 -3 6 -7 -8 0
16 -17 -18 -1 -2 -3 -6 7 8 0
16 -17 -18 -1 -2 -3 -6 7 -8 0
16 -17 -18 -1 -2 -3 -6 -7 8 0
16 -17 -18 -1 -2 -3 -6 -7 -8 0
-16 17 18 1 2 3 6 7 8 0
-16 17 18 1 2 3 6 7 -8 0
-16 17 18 1 2 3 6 -7 8 0
-16 17 18 1 2 3 6 -7 -8 0
-16 17 18 1 2 3 -6 7 8 0
-16 17 18 1 2 3 -6 7 -8 64 0
-16 17 18 1 2 3 -6 -7 8 34 0
-16 17 18 1 2 3 -6 -7 -8 56 0
-16 17 18 1 2 -3 6 7 8 0
-16 17 18 1 2 -3 6 7 -8 0
-16 17 18 1 2 -3 6 -7 8 0
-16 17 18 1 2 -3 6 -7 -8 0
-16 17 18 1 2 -3 -6 7 8 38 0
-16 17 18 1 2 -3 -6 7 -8 59 0
-16 17 18 1 2 -3 -6 -7 8 29 0
-16 17 18 1 2 -3 -6 -7 -8 0
-16 17 18 1 -2 3 6 7 8 0
-16 17 18 1 -2 3 6 7 -8 0
-16 17 18 1 -2 3 6 -7 8 0
-16 17 18 1 -2 3 6 -7 -8 38 0
-16 17 18 1 -2 3 -6 7 8 61 0
-16 17 18 1 -2 3 -6 7 -8 50 0
-16 17 18 1 -2 3 -6 -7 8 0
-16 17 18 1 -2 3 -6 -7 -8 0
-16 17 18 1 -2 -3 6 7 8 0
-16 17 18 1 -2 -3 6 7 -8 0
-16 17 18 1 -2 -3 6 -7 8 0
-16 17 18 1 -2 -3 6 -7 -8 49 0
-16 17 18 1 -2 -3 -6 7 8 24 0
-16 17 18 1 -2 -3 -6 7 -8 35 0
-16 17 18 1 -2 -3 -6 -7 8 0
-16 17 18 1 -2 -3 -6 -7 -8 0
-16 17 18 -1 2 3 6 7 8 0
-16 17 18 -1 2 3 6 7 -8 0
-16 17 18 -1 2 3 6 -7 8 31 0
-16 17 18 -1 2 3 6 -7 -8 46 0
-16 17 18 -1 2 3 -6 7 8 47 0
-16 17 18 -1 2 3 -6 7 -8 69 0
-16 17 18 -1 2 3 -6 -7 8 0
-16 17 18 -1 2 3 -6 -7 -8 0
-16 17 18 -1 2 -3 6 7 8 0
-16 17 18 -1 2 -3 6 7 -8 37 0
-16 17 18 -1 2 -3 6 -7 8 28 0
-16 17 18 -1 2 -3 6 -7 -8 73 0
-16 17 18 -1 2 -3 -6 7 8 22 0
-16 17 18 -1 2 -3 -6 7 -8 29 0
-16 17 18 -1 2 -3 -6 -7 8 0
-16 17 18 -1 2 -3 -6 -7 -8 0
-16 17 18 -1 -2 3 6 7 8 0
-16 17 18 -1 -2 3 6 7 -8 28 0
-16 17 18 -1 -2 3 6 -7 8 73 0
-16 17 18 -1 -2 3 6 -7 -8 43 0
-16 17 18 -1 -2 3 -6 7 8 42 0
-16 17 18 -1 -2 3 -6 7 -8 0
-16 17 18 -1 -2 3 -6 -7 8 0
-16 17 18 -1 -2 3 -6 -7 -8 0
-16 17 18 -1 -2 -3 6 7 8 0
-16 17 18 -1 -2 -3 6 7 -8 29 0
-16 17 18 -1 -2 -3 6 -7 8 30 0
-16 17 18 -1 -2 -3 6 -7 -8 46 0
-16 17 18 -1 -2 -3 -6 7 8 0
-16 17 18 -1 -2 -3 -6 7 -8 0
-16 17 18 -1 -2 -3 -6 -7 8 0
-16 17 18 -1 -2 -3 -6 -7 -8 0
-16 17 -18 1 2 3 6 7 8 0
-16 17 -18 1 2 3 6 7 -8 0
-16 17 -18 1 2 3 6 -7 8 0
-16 17 -18 1 2 3 6 -7 -8 0
-16 17 -18 1 2 3 -6 7 8 0
-16 17 -18 1 2 3 -6 7 -8 0
-16 17 -18 1 2 3 -6 -7 8 52 0
-16 17 -18 1 2 3 -6 -7 -8 67 0
-16 17 -18 1 2 -3 6 7 8 0
-16 17 -18 1 2 -3 6 7 -8 0
-16 17 -18 1 2 -3 6 -7 8 0
-16 17 -18 1 2 -3 6 -7 -8 0
-16 17 -18 1 2 -3 -6 7 8 0
-16 17 -18 1 2 -3 -6 7 -8 0
-16 17 -18 1 2 -3 -6 -7 8 28 0
-16 17 -18 1 2 -3 -6 -7 -8 70 0
-16 17 -18 1 -2 3 6 7 8 0
-16 17 -18 1 -2 3 6 7 -8 0
-16 17 -18 1 -2 3 6 -7 8 0
-16 17 -18 1 -2 3 6 -7 -8 0
-16 17 -18 1 -2 3 -6 7 8 0
-16 17 -18 1 -2 3 -6 7 -8 71 0
-16 17 -18 1 -2 3 -6 -7 8 29 0
-16 17 -18 1 -2 3 -6 -7 -8 39 0
-16 17 -18 1 -2 -3 6 7 8 0
-16 17 -18 1 -2 -3 6 7 -8 0
-16 17 -18 1 -2 -3 6 -7 8 0
-16 17 -18 1 -2 -3 6 -7 -8 0
-16 17 -18 1 -2 -3 -6 7 8 48 0
-16 17 -18 1 -2 -3 -6 7 -8 47 0
-16 17 -18 1 -2 -3 -6 -7 8 61 0
-16 17 -18 1 -2 -3 -6 -7 -8 56 0
-16 17 -18 -1 2 3 6 7 8 0
-16 17 -18 -1 2 3 6 7 -8 0
-16 17 -18 -1 2 3 6 -7 8 0
-16 17 -18 -1 2 3 6 -7 -8 46 0
-16 17 -18 -1 2 3 -6 7 8 55 0
-16 17 -18 -1 2 3 -6 7 -8 55 0
-16 17 -18 -1 2 3 -6 -7 8 39 0
-16 17 -18 -1 2 3 -6 -7 -8 0
-16 17 -18 -1 2 -3 6 7 8 0
-16 17 -18 -1 2 -3 6 7 -8 0
-16 17 -18 -1 2 -3 6 -7 8 0
-16 17 -18 -1 2 -3 6 -7 -8 59 0
-16 17 -18 -1 2 -3 -6 7 8 28 0
-16 17 -18 -1 2 -3 -6 7 -8 29 0
-16 17 -18 -1 2 -3 -6 -7 8 57 0
-16 17 -18 -1 2 -3 -6 -7 -8 0
-16 17 -18 -1 -2 3 6 7 8 0
-16 17 -18 -1 -2 3 6 7 -8 0
-16 17 -18 -1 -2 3 6 -7 8 49 0
-16 17 -18 -1 -2 3 6 -7 -8 39 0
-16 17 -18 -1 -2 3 -6 7 8 72 0
-16 17 -18 -1 -2 3 -6 7 -8 46 0
-16 17 -18 -1 -2 3 -6 -7 8 0
-16 17 -18 -1 -2 3 -6 -7 -8 0
-16 17 -18 -1 -2 -3 6 7 8 0
-16 17 -18 -1 -2 -3 6 7 -8 42 0
-16 17 -18 -1 -2 -3 6 -7 8 29 0
-16 17 -18 -1 -2 -3 6 -7 -8 67 0
-16 17 -18 -1 -2 -3 -6 7 8 59 0
-16 17 -18 -1 -2 -3 -6 7 -8 36 0
-16 17 -18 -1 -2 -3 -6 -7 8 0
-16 17 -18 -1 -2 -3 -6 -7 -8 0
-16 -17 18 1 2 3 6 7 8 0
-16 -17 18 1 2 3 6 7 -8 0
-16 -17 18 1 2 3 6 -7 8 0
-16 -17 18 1 2 3 6 -7 -8 0
-16 -17 18 1 2 3 -6 7 8 0
-16 -17 18 1 2 3 -6 7 -8 0
-16 -17 18 1 2 3 -6 -7 8 31 0
-16 -17 18 1 2 3 -6 -7 -8 46 0
-16 -17 18 1 2 -3 6 7 8 0
-16 -17 18 1 2 -3 6 7 -8 0
-16 -17 18 1 2 -3 6 -7 8 0
-16 -17 18 1 2 -3 6 -7 -8 0
-16 -17 18 1 2 -3 -6 7 8 0
-16 -17 18 1 2 -3 -6 7 -8 49 0
-16 -17 18 1 2 -3 -6 -7 8 0
-16 -17 18 1 2 -3 -6 -7 -8 21 0
-16 -17 18 1 -2 3 6 7 8 0
-16 -17 18 1 -2 3 6 7 -8 0
-16 -17 18 1 -2 3 6 -7 8 0
-16 -17 18 1 -2 3 6 -7 -8 0
-16 -17 18 1 -2 3 -6 7 8 0
-16 -17 18 1 -2 3 -6 7 -8 0
-16 -17 18 1 -2 3 -6 -7 8 28 0
-16 -17 18 1 -2 3 -6 -7 -8 53 0
-16 -17 18 1 -2 -3 6 7 8 0
-16 -17 18 1 -2 -3 6 7 -8 0
-16 -17 18 1 -2 -3 6 -7 8 0
-16 -17 18 1 -2 -3 6 -7 -8 0
-16 -17 18 1 -2 -3 -6 7 8 0
-16 -17 18 1 -2 -3 -6 7 -8 47 0
-16 -17 18 1 -2 -3 -6 -7 8 32 0
-16 -17 18 1 -2 -3 -6 -7 -8 56 0
-16 -17 18 -1 2 3 6 7 8 0
-16 -17 18 -1 2 3 6 7 -8 0
-16 -17 18 -1 2 3 6 -7 8 0
-16 -17 18 -1 2 3 6 -7 -8 0
-16 -17 18 -1 2 3 -6 7 8 0
-16 -17 18 -1 2 3 -6 7 -8 55 0
-16 -17 18 -1 2 3 -6 -7 8 62 0
-16 -17 18 -1 2 3 -6 -7 -8 28 0
-16 -17 18 -1 2 -3 6 7 8 0
-16 -17 18 -1 2 -3 6 7 -8 0
-16 -17 18 -1 2 -3 6 -7 8 0
-16 -17 18 -1 2 -3 6 -7 -8 49 0
-16 -17 18 -1 2 -3 -6 7 8 28 0
-16 -17 18 -1 2 -3 -6 7 -8 0
-16 -17 18 -1 2 -3 -6 -7 8 63 0
-16 -17 18 -1 2 -3 -6 -7 -8 0
-16 -17 18 -1 -2 3 6 7 8 0
-16 -17 18 -1 -2 3 6 7 -8 0
-16 -17 18 -1 -2 3 6 -7 8 0
-16 -17 18 -1 -2 3 6 -7 -8 0
-16 -17 18 -1 -2 3 -6 7 8 51 0
-16 -17 18 -1 -2 3 -6 7 -8 58 0
-16 -17 18 -1 -2 3 -6 -7 8 48 0
-16 -17 18 -1 -2 3 -6 -7 -8 0
-16 -17 18 -1 -2 -3 6 7 8 0
-16 -17 18 -1 -2 -3 6 7 -8 46 0
-16 -17 18 -1 -2 -3 6 -7 8 28 0
-16 -17 18 -1 -2 -3 6 -7 -8 67 0
-16 -17 18 -1 -2 -3 -6 7 8 73 0
-16 -17 18 -1 -2 -3 -6 7 -8 57 0
-16 -17 18 -1 -2 -3 -6 -7 8 0
-16 -17 18 -1 -2 -3 -6 -7 -8 0
-16 -17 -18 1 2 3 6 7 8 0
-16 -17 -18 1 2 3 6 7 -8 0
-16 -17 -18 1 2 3 6 -7 8 0
-16 -17 -18 1 2 3 6 -7 -8 0
-16 -17 -18 1 2 3 -6 7 8 0
-16 -17 -18 1 2 3 -6 7 -8 0
-16 -17 -18 1 2 3 -6 -7 8 0
-16 -17 -18 1 2 3 -6 -7 -8 46 0
-16 -17 -18 1 2 -3 6 7 8 0
-16 -17 -18 1 2 -3 6 7 -8 0
-16 -17 -18 1 2 -3 6 -7 8 0
-16 -17 -18 1 2 -3 6 -7 -8 0
-16 -17 -18 1 2 -3 -6 7 8 0
-16 -17 -18 1 2 -3 -6 7 -8 0
-16 -17 -18 1 2 -3 -6 -7 8 0
-16 -17 -18 1 2 -3 -6 -7 -8 44 0
-16 -17 -18 1 -2 3 6 7 8 0
-16 -17 -18 1 -2 3 6 7 -8 0
-16 -17 -18 1 -2 3 6 -7 8 0
-16 -17 -18 1 -2 3 6 -7 -8 0
-16 -17 -18 1 -2 3 -6 7 8 0
-16 -17 -18 1 -2 3 -6 7 -8 0
-16 -17 -18 1 -2 3 -6 -7 8 28 0
-16 -17 -18 1 -2 3 -6 -7 -8 26 0
-16 -17 -18 1 -2 -3 6 7 8 0
-16 -17 -18 1 -2 -3 6 7 -8 0
-16 -17 -18 1 -2 -3 6 -7 8 0
-16 -17 -18 1 -2 -3 6 -7 -8 0
-16 -17 -18 1 -2 -3 -6 7 8 0
-16 -17 -18 1 -2 -3 -6 7 -8 0
-16 -17 -18 1 -2 -3 -6 -7 8 38 0
-16 -17 -18 1 -2 -3 -6 -7 -8 67 0
-16 -17 -18 -1 2 3 6 7 8 0
-16 -17 -18 -1 2 3 6 7 -8 0
-16 -17 -18 -1 2 3 6 -7 8 0
-16 -17 -18 -1 2 3 6 -7 -8 0
-16 -17 -18 -1 2 3 -6 7 8 0
-16 -17 -18 -1 2 3 -6 7 -8 0
-16 -17 -18 -1 2 3 -6 -7 8 0
-16 -17 -18 -1 2 3 -6 -7 -8 19 0
-16 -17 -18 -1 2 -3 6 7 8 0
-16 -17 -18 -1 2 -3 6 7 -8 0
-16 -17 -18 -1 2 -3 6 -7 8 0
-16 -17 -18 -1 2 -3 6 -7 -8 0
-16 -17 -18 -1 2 -3 -6 7 8 0
-16 -17 -18 -1 2 -3 -6 7 -8 0
-16 -17 -18 -1 2 -3 -6 -7 8 57 0
-16 -17 -18 -1 2 -3 -6 -7 -8 20 0
-16 -17 -18 -1 -2 3 6 7 8 0
-16 -17 -18 -1 -2 3 6 7 -8 0
-16 -17 -18 -1 -2 3 6 -7 8 0
-16 -17 -18 -1 -2 3 6 -7 -8 0
-16 -17 -18 -1 -2 3 -6 7 8 0
-16 -17 -18 -1 -2 3 -6 7 -8 46 0
-16 -17 -18 -1 -2 3 -6 -7 8 54 0
-16 -17 -18 -1 -2 3 -6 -7 -8 20 0
-16 -17 -18 -1 -2 -3 6 7 8 0
-16 -17 -18 -1 -2 -3 6 7 -8 46 0
-16 -17 -18 -1 -2 -3 6 -7 8 30 0
-16 -17 -18 -1 -2 -3 6 -7 -8 46 0
-16 -17 -18 -1 -2 -3 -6 7 8 49 0
-16 -17 -18 -1 -2 -3 -6 7 -8 66 0
-16 -17 -18 -1 -2 -3 -6 -7 8 20 0
-16 -17 -18 -1 -2 -3 -6 -7 -8 20 0
74 75 76 11 12 13 16 17 18 77 0
74 75 76 11 12 13 16 17 -18 145 0
74 75 76 11 12 13 16 -17 18 162 0
74 75 76 11 12 13 16 -17 -18 130 0
74 75 76 11 12 13 -16 17 18 88 0
74 75 76 11 12 13 -16 17 -18 168 0
74 75 76 11 12 13 -16 -17 18 130 0
74 75 76 11 12 13 -16 -17 -18 148 0
74 75 76 11 12 -13 16 17 18 146 0
74 75 76 11 12 -13 16 17 -18 100 0
74 75 76 11 12 -13 16 -17 18 156 0
74 75 76 11 12 -13 16 -17 -18 187 0
74 75 76 11 12 -13 -16 17 18 130 0
74 75 76 11 12 -13 -16 17 -18 132 0
74 75 76 11 12 -13 -16 -17 18 130 0
74 75 76 11 12 -13 -16 -17 -18 197 0
74 75 76 11 -12 13 16 17 18 147 0
74 75 76 11 -12 13 16 17 -18 78 0
74 75 76 11 -12 13 16 -17 18 89 0
74 75 76 11 -12 13 16 -17 -18 169 0
74 75 76 11 -12 13 -16 17 18 173 0
74 75 76 11 -12 13 -16 17 -18 93 0
74 75 76 11 -12 13 -16 -17 18 131 0
74 75 76 11 -12 13 -16 -17 -18 168 0
74 75 76 11 -12 -13 16 17 18 149 0
74 75 76 11 -12 -13 16 17 -18 163 0
74 75 76 11 -12 -13 16 -17 18 174 0
74 75 76 11 -12 -13 16 -17 -18 150 0
74 75 76 11 -12 -13 -16 17 18 124 0
74 75 76 11 -12 -13 -16 17 -18 99 0
74 75 76 11 -12 -13 -16 -17 18 173 0
74 75 76 11 -12 -13 -16 -17 -18 131 0
74 75 76 -11 12 13 16 17 18 79 0
74 75 76 -11 12 13 16 17 -18 81 0
74 75 76 -11 12 13 16 -17 18 88 0
74 75 76 -11 12 13 16 -17 -18 130 0
74 75 76 -11 12 13 -16 17 18 168 0
74 75 76 -11 12 13 -16 17 -18 99 0
74 75 76 -11 12 13 -16 -17 18 127 0
74 75 76 -11 12 13 -16 -17 -18 168 0
74 75 76 -11 12 -13 16 17 18 104 0
74 75 76 -11 12 -13 16 17 -18 89 0
74 75 76 -11 12 -13 16 -17 18 85 0
74 75 76 -11 12 -13 16 -17 -18 175 0
74 75 76 -11 12 -13 -16 17 18 136 0
74 75 76 -11 12 -13 -16 17 -18 130 0
74 75 76 -11 12 -13 -16 -17 18 133 0
74 75 76 -11 12 -13 -16 -17 -18 141 0
74 75 76 -11 -12 13 16 17 18 153 0
74 75 76 -11 -12 13 16 17 -18 130 0
74 75 76 -11 -12 13 16 -17 18 89 0
74 75 76 -11 -12 13 16 -17 -18 108 0
74 75 76 -11 -12 13 -16 17 18 175 0
74 75 76 -11 -12 13 -16 17 -18 187 0
74 75 76 -11 -12 13 -16 -17 18 136 0
74 75 76 -11 -12 13 -16 -17 -18 171 0
74 75 76 -11 -12 -13 16 17 18 138 0
74 75 76 -11 -12 -13 16 17 -18 88 0
74 75 76 -11 -12 -13 16 -17 18 124 0
74 75 76 -11 -12 -13 16 -17 -18 99 0
74 75 76 -11 -12 -13 -16 17 18 122 0
74 75 76 -11 -12 -13 -16 17 -18 124 0
74 75 76 -11 -12 -13 -16 -17 18 182 0
74 75 76 -11 -12 -13 -16 -17 -18 141 0
74 75 -76 11 12 13 16 17 18 172 0
74 75 -76 11 12 13 16 17 -18 151 0
74 75 -76 11 12 13 16 -17 18 188 0
74 75 -76 11 12 13 16 -17 -18 198 0
74 75 -76 11 12 13 -16 17 18 88 0
74 75 -76 11 12 13 -16 17 -18 168 0
74 75 -76 11 12 13 -16 -17 18 130 0
74 75 -76 11 12 13 -16 -17 -18 148 0
74 75 -76 11 12 -13 16 17 18 190 0
74 75 -76 11 12 -13 16 17 -18 152 0
74 75 -76 11 12 -13 16 -17 18 176 0
74 75 -76 11 12 -13 16 -17 -18 155 0
74 75 -76 11 12 -13 -16 17 18 130 0
74 75 -76 11 12 -13 -16 17 -18 132 0
74 75 -76 11 12 -13 -16 -17 18 130 0
74 75 -76 11 12 -13 -16 -17 -18 197 0
74 75 -76 11 -12 13 16 17 18 164 0
74 75 -76 11 -12 13 16 17 -18 142 0
74 75 -76 11 -12 13 16 -17 18 116 0
74 75 -76 11 -12 13 16 -17 -18 169 0
74 75 -76 11 -12 13 -16 17 18 173 0
74 75 -76 11 -12 13 -16 17 -18 93 0
74 75 -76 11 -12 13 -16 -17 18 131 0
74 75 -76 11 -12 13 -16 -17 -18 168 0
74 75 -76 11 -12 -13 16 17 18 128 0
74 75 -76 11 -12 -13 16 17 -18 178 0
74 75 -76 11 -12 -13 16 -17 18 100 0
74 75 -76 11 -12 -13 16 -17 -18 150 0
74 75 -76 11 -12 -13 -16 17 18 124 0
74 75 -76 11 -12 -13 -16 17 -18 99 0
74 75 -76 11 -12 -13 -16 -17 18 173 0
74 75 -76 11 -12 -13 -16 -17 -18 131 0
74 75 -76 -11 12 13 16 17 18 80 0
74 75 -76 -11 12 13 16 17 -18 83 0
74 75 -76 -11 12 13 16 -17 18 157 0
74 75 -76 -11 12 13 16 -17 -18 130 0
74 75 -76 -11 12 13 -16 17 18 168 0
74 75 -76 -11 12 13 -16 17 -18 99 0
74 75 -76 -11 12 13 -16 -17 18 127 0
74 75 -76 -11 12 13 -16 -17 -18 168 0
74 75 -76 -11 12 -13 16 17 18 165 0
74 75 -76 -11 12 -13 16 17 -18 82 0
74 75 -76 -11 12 -13 16 -17 18 111 0
74 75 -76 -11 12 -13 16 -17 -18 175 0
74 75 -76 -11 12 -13 -16 17 18 136 0
74 75 -76 -11 12 -13 -16 17 -18 130 0
74 75 -76 -11 12 -13 -16 -17 18 133 0
74 75 -76 -11 12 -13 -16 -17 -18 141 0
74 75 -76 -11 -12 13 16 17 18 86 0
74 75 -76 -11 -12 13 16 17 -18 166 0
74 75 -76 -11 -12 13 16 -17 18 89 0
74 75 -76 -11 -12 13 16 -17 -18 108 0
74 75 -76 -11 -12 13 -16 17 18 175 0
74 75 -76 -11 -12 13 -16 17 -18 187 0
74 75 -76 -11 -12 13 -16 -17 18 136 0
74 75 -76 -11 -12 13 -16 -17 -18 171 0
74 75 -76 -11 -12 -13 16 17 18 115 0
74 75 -76 -11 -12 -13 16 17 -18 154 0
74 75 -76 -11 -12 -13 16 -17 18 124 0
74 75 -76 -11 -12 -13 16 -17 -18 99 0
74 75 -76 -11 -12 -13 -16 17 18 122 0
74 75 -76 -11 -12 -13 -16 17 -18 124 0
74 75 -76 -11 -12 -13 -16 -17 18 182 0
74 75 -76 -11 -12 -13 -16 -17 -18 141 0
74 -75 76 11 12 13 16 17 18 172 0
74 -75 76 11 12 13 16 17 -18 99 0
74 -75 76 11 12 13 16 -17 18 169 0
74 -75 76 11 12 13 16 -17 -18 166 0
74 -75 76 11 12 13 -16 17 18 177 0
74 -75 76 11 12 13 -16 17 -18 168 0
74 -75 76 11 12 13 -16 -17 18 130 0
74 -75 76 11 12 13 -16 -17 -18 148 0
74 -75 76 11 12 -13 16 17 18 190 0
74 -75 76 11 12 -13 16 17 -18 174 0
74 -75 76 11 12 -13 16 -17 18 90 0
74 -75 76 11 12 -13 16 -17 -18 84 0
74 -75 76 11 12 -13 -16 17 18 130 0
74 -75 76 11 12 -13 -16 17 -18 132 0
74 -75 76 11 12 -13 -16 -17 18 130 0
74 -75 76 11 12 -13 -16 -17 -18 197 0
74 -75 76 11 -12 13 16 17 18 164 0
74 -75 76 11 -12 13 16 17 -18 109 0
74 -75 76 11 -12 13 16 -17 18 82 0
74 -75 76 11 -12 13 16 -17 -18 162 0
74 -75 76 11 -12 13 -16 17 18 173 0
74 -75 76 11 -12 13 -16 17 -18 93 0
74 -75 76 11 -12 13 -16 -17 18 131 0
74 -75 76 11 -12 13 -16 -17 -18 168 0
74 -75 76 11 -12 -13 16 17 18 130 0
74 -75 76 11 -12 -13 16 17 -18 114 0
74 -75 76 11 -12 -13 16 -17 18 152 0
74 -75 76 11 -12 -13 16 -17 -18 191 0
74 -75 76 11 -12 -13 -16 17 18 124 0
74 -75 76 11 -12 -13 -16 17 -18 99 0
74 -75 76 11 -12 -13 -16 -17 18 173 0
74 -75 76 11 -12 -13 -16 -17 -18 131 0
74 -75 76 -11 12 13 16 17 18 99 0
74 -75 76 -11 12 13 16 17 -18 81 0
74 -75 76 -11 12 13 16 -17 18 139 0
74 -75 76 -11 12 13 16 -17 -18 130 0
74 -75 76 -11 12 13 -16 17 18 168 0
74 -75 76 -11 12 13 -16 17 -18 99 0
74 -75 76 -11 12 13 -16 -17 18 127 0
74 -75 76 -11 12 13 -16 -17 -18 168 0
74 -75 76 -11 12 -13 16 17 18 89 0
74 -75 76 -11 12 -13 16 17 -18 116 0
74 -75 76 -11 12 -13 16 -17 18 105 0
74 -75 76 -11 12 -13 16 -17 -18 175 0
74 -75 76 -11 12 -13 -16 17 18 136 0
74 -75 76 -11 12 -13 -16 17 -18 130 0
74 -75 76 -11 12 -13 -16 -17 18 133 0
74 -75 76 -11 12 -13 -16 -17 -18 141 0
74 -75 76 -11 -12 13 16 17 18 110 0
74 -75 76 -11 -12 13 16 17 -18 198 0
74 -75 76 -11 -12 13 16 -17 18 165 0
74 -75 76 -11 -12 13 16 -17 -18 108 0
74 -75 76 -11 -12 13 -16 17 18 175 0
74 -75 76 -11 -12 13 -16 17 -18 187 0
74 -75 76 -11 -12 13 -16 -17 18 136 0
74 -75 76 -11 -12 13 -16 -17 -18 171 0
74 -75 76 -11 -12 -13 16 17 18 101 0
74 -75 76 -11 -12 -13 16 17 -18 113 0
74 -75 76 -11 -12 -13 16 -17 18 92 0
74 -75 76 -11 -12 -13 16 -17 -18 99 0
74 -75 76 -11 -12 -13 -16 17 18 122 0
74 -75 76 -11 -12 -13 -16 17 -18 124 0
74 -75 76 -11 -12 -13 -16 -17 18 182 0
74 -75 76 -11 -12 -13 -16 -17 -18 141 0
74 -75 -76 11 12 13 16 17 18 172 0
74 -75 -76 11 12 13 16 17 -18 99 0
74 -75 -76 11 12 13 16 -17 18 169 0
74 -75 -76 11 12 13 16 -17 -18 130 0
74 -75 -76 11 12 13 -16 17 18 177 0
74 -75 -76 11 12 13 -16 17 -18 170 0
74 -75 -76 11 12 13 -16 -17 18 130 0
74 -75 -76 11 12 13 -16 -17 -18 148 0
74 -75 -76 11 12 -13 16 17 18 190 0
74 -75 -76 11 12 -13 16 17 -18 174 0
74 -75 -76 11 12 -13 16 -17 18 156 0
74 -75 -76 11 12 -13 16 -17 -18 179 0
74 -75 -76 11 12 -13 -16 17 18 149 0
74 -75 -76 11 12 -13 -16 17 -18 102 0
74 -75 -76 11 12 -13 -16 -17 18 130 0
74 -75 -76 11 12 -13 -16 -17 -18 197 0
74 -75 -76 11 -12 13 16 17 18 164 0
74 -75 -76 11 -12 13 16 17 -18 109 0
74 -75 -76 11 -12 13 16 -17 18 89 0
74 -75 -76 11 -12 13 16 -17 -18 188 0
74 -75 -76 11 -12 13 -16 17 18 196 0
74 -75 -76 11 -12 13 -16 17 -18 93 0
74 -75 -76 11 -12 13 -16 -17 18 131 0
74 -75 -76 11 -12 13 -16 -17 -18 168 0
74 -75 -76 11 -12 -13 16 17 18 130 0
74 -75 -76 11 -12 -13 16 17 -18 123 0
74 -75 -76 11 -12 -13 16 -17 18 174 0
74 -75 -76 11 -12 -13 16 -17 -18 125 0
74 -75 -76 11 -12 -13 -16 17 18 199 0
74 -75 -76 11 -12 -13 -16 17 -18 99 0
74 -75 -76 11 -12 -13 -16 -17 18 173 0
74 -75 -76 11 -12 -13 -16 -17 -18 131 0
74 -75 -76 -11 12 13 16 17 18 99 0
74 -75 -76 -11 12 13 16 17 -18 81 0
74 -75 -76 -11 12 13 16 -17 18 157 0
74 -75 -76 -11 12 13 16 -17 -18 198 0
74 -75 -76 -11 12 13 -16 17 18 168 0
74 -75 -76 -11 12 13 -16 17 -18 99 0
74 -75 -76 -11 12 13 -16 -17 18 127 0
74 -75 -76 -11 12 13 -16 -17 -18 168 0
74 -75 -76 -11 12 -13 16 17 18 89 0
74 -75 -76 -11 12 -13 16 17 -18 89 0
74 -75 -76 -11 12 -13 16 -17 18 135 0
74 -75 -76 -11 12 -13 16 -17 -18 180 0
74 -75 -76 -11 12 -13 -16 17 18 136 0
74 -75 -76 -11 12 -13 -16 17 -18 130 0
74 -75 -76 -11 12 -13 -16 -17 18 133 0
74 -75 -76 -11 12 -13 -16 -17 -18 141 0
74 -75 -76 -11 -12 13 16 17 18 110 0
74 -75 -76 -11 -12 13 16 17 -18 130 0
74 -75 -76 -11 -12 13 16 -17 18 104 0
74 -75 -76 -11 -12 13 16 -17 -18 192 0
74 -75 -76 -11 -12 13 -16 17 18 175 0
74 -75 -76 -11 -12 13 -16 17 -18 187 0
74 -75 -76 -11 -12 13 -16 -17 18 136 0
74 -75 -76 -11 -12 13 -16 -17 -18 171 0
74 -75 -76 -11 -12 -13 16 17 18 126 0
74 -75 -76 -11 -12 -13 16 17 -18 113 0
74 -75 -76 -11 -12 -13 16 -17 18 158 0
74 -75 -76 -11 -12 -13 16 -17 -18 99 0
74 -75 -76 -11 -12 -13 -16 17 18 122 0
74 -75 -76 -11 -12 -13 -16 17 -18 124 0
74 -75 -76 -11 -12 -13 -16 -17 18 182 0
74 -75 -76 -11 -12 -13 -16 -17 -18 141 0
-74 75 76 11 12 13 16 17 18 172 0
-74 75 76 11 12 13 16 17 -18 99 0
-74 75 76 11 12 13 16 -17 18 169 0
-74 75 76 11 12 13 16 -17 -18 130 0
-74 75 76 11 12 13 -16 17 18 157 0
-74 75 76 11 12 13 -16 17 -18 144 0
-74 75 76 11 12 13 -16 -17 18 128 0
-74 75 76 11 12 13 -16 -17 -18 148 0
-74 75 76 11 12 -13 16 17 18 190 0
-74 75 76 11 12 -13 16 17 -18 174 0
-74 75 76 11 12 -13 16 -17 18 156 0
-74 75 76 11 12 -13 16 -17 -18 187 0
-74 75 76 11 12 -13 -16 17 18 128 0
-74 75 76 11 12 -13 -16 17 -18 97 0
-74 75 76 11 12 -13 -16 -17 18 130 0
-74 75 76 11 12 -13 -16 -17 -18 197 0
-74 75 76 11 -12 13 16 17 18 164 0
-74 75 76 11 -12 13 16 17 -18 109 0
-74 75 76 11 -12 13 16 -17 18 89 0
-74 75 76 11 -12 13 16 -17 -18 169 0
-74 75 76 11 -12 13 -16 17 18 87 0
-74 75 76 11 -12 13 -16 17 -18 95 0
-74 75 76 11 -12 13 -16 -17 18 131 0
-74 75 76 11 -12 13 -16 -17 -18 168 0
-74 75 76 11 -12 -13 16 17 18 130 0
-74 75 76 11 -12 -13 16 17 -18 123 0
-74 75 76 11 -12 -13 16 -17 18 174 0
-74 75 76 11 -12 -13 16 -17 -18 159 0
-74 75 76 11 -12 -13 -16 17 18 193 0
-74 75 76 11 -12 -13 -16 17 -18 99 0
-74 75 76 11 -12 -13 -16 -17 18 173 0
-74 75 76 11 -12 -13 -16 -17 -18 131 0
-74 75 76 -11 12 13 16 17 18 99 0
-74 75 76 -11 12 13 16 17 -18 81 0
-74 75 76 -11 12 13 16 -17 18 88 0
-74 75 76 -11 12 13 16 -17 -18 166 0
-74 75 76 -11 12 13 -16 17 18 129 0
-74 75 76 -11 12 13 -16 17 -18 151 0
-74 75 76 -11 12 13 -16 -17 18 127 0
-74 75 76 -11 12 13 -16 -17 -18 168 0
-74 75 76 -11 12 -13 16 17 18 89 0
-74 75 76 -11 12 -13 16 17 -18 89 0
-74 75 76 -11 12 -13 16 -17 18 85 0
-74 75 76 -11 12 -13 16 -17 -18 180 0
-74 75 76 -11 12 -13 -16 17 18 185 0
-74 75 76 -11 12 -13 -16 17 -18 130 0
-74 75 76 -11 12 -13 -16 -17 18 133 0
-74 75 76 -11 12 -13 -16 -17 -18 141 0
-74 75 76 -11 -12 13 16 17 18 110 0
-74 75 76 -11 -12 13 16 17 -18 130 0
-74 75 76 -11 -12 13 16 -17 18 89 0
-74 75 76 -11 -12 13 16 -17 -18 202 0
-74 75 76 -11 -12 13 -16 17 18 117 0
-74 75 76 -11 -12 13 -16 17 -18 187 0
-74 75 76 -11 -12 13 -16 -17 18 136 0
-74 75 76 -11 -12 13 -16 -17 -18 171 0
-74 75 76 -11 -12 -13 16 17 18 126 0
-74 75 76 -11 -12 -13 16 17 -18 88 0
-74 75 76 -11 -12 -13 16 -17 18 118 0
-74 75 76 -11 -12 -13 16 -17 -18 79 0
-74 75 76 -11 -12 -13 -16 17 18 137 0
-74 75 76 -11 -12 -13 -16 17 -18 124 0
-74 75 76 -11 -12 -13 -16 -17 18 182 0
-74 75 76 -11 -12 -13 -16 -17 -18 141 0
-74 75 -76 11 12 13 16 17 18 172 0
-74 75 -76 11 12 13 16 17 -18 99 0
-74 75 -76 11 12 13 16 -17 18 169 0
-74 75 -76 11 12 13 16 -17 -18 130 0
-74 75 -76 11 12 13 -16 17 18 88 0
-74 75 -76 11 12 13 -16 17 -18 168 0
-74 75 -76 11 12 13 -16 -17 18 149 0
-74 75 -76 11 12 13 -16 -17 -18 159 0
-74 75 -76 11 12 -13 16 17 18 190 0
-74 75 -76 11 12 -13 16 17 -18 174 0
-74 75 -76 11 12 -13 16 -17 18 156 0
-74 75 -76 11 12 -13 16 -17 -18 187 0
-74 75 -76 11 12 -13 -16 17 18 130 0
-74 75 -76 11 12 -13 -16 17 -18 119 0
-74 75 -76 11 12 -13 -16 -17 18 98 0
-74 75 -76 11 12 -13 -16 -17 -18 197 0
-74 75 -76 11 -12 13 16 17 18 164 0
-74 75 -76 11 -12 13 16 17 -18 109 0
-74 75 -76 11 -12 13 16 -17 18 89 0
-74 75 -76 11 -12 13 16 -17 -18 169 0
-74 75 -76 11 -12 13 -16 17 18 173 0
-74 75 -76 11 -12 13 -16 17 -18 200 0
-74 75 -76 11 -12 13 -16 -17 18 181 0
-74 75 -76 11 -12 13 -16 -17 -18 168 0
-74 75 -76 11 -12 -13 16 17 18 130 0
-74 75 -76 11 -12 -13 16 17 -18 123 0
-74 75 -76 11 -12 -13 16 -17 18 174 0
-74 75 -76 11 -12 -13 16 -17 -18 150 0
-74 75 -76 11 -12 -13 -16 17 18 92 0
-74 75 -76 11 -12 -13 -16 17 -18 145 0
-74 75 -76 11 -12 -13 -16 -17 18 183 0
-74 75 -76 11 -12 -13 -16 -17 -18 131 0
-74 75 -76 -11 12 13 16 17 18 99 0
-74 75 -76 -11 12 13 16 17 -18 81 0
-74 75 -76 -11 12 13 16 -17 18 88 0
-74 75 -76 -11 12 13 16 -17 -18 130 0
-74 75 -76 -11 12 13 -16 17 18 189 0
-74 75 -76 -11 12 13 -16 17 -18 145 0
-74 75 -76 -11 12 13 -16 -17 18 127 0
-74 75 -76 -11 12 13 -16 -17 -18 168 0
-74 75 -76 -11 12 -13 16 17 18 89 0
-74 75 -76 -11 12 -13 16 17 -18 89 0
-74 75 -76 -11 12 -13 16 -17 18 85 0
-74 75 -76 -11 12 -13 16 -17 -18 175 0
-74 75 -76 -11 12 -13 -16 17 18 194 0
-74 75 -76 -11 12 -13 -16 17 -18 98 0
-74 75 -76 -11 12 -13 -16 -17 18 133 0
-74 75 -76 -11 12 -13 -16 -17 -18 141 0
-74 75 -76 -11 -12 13 16 17 18 110 0
-74 75 -76 -11 -12 13 16 17 -18 130 0
-74 75 -76 -11 -12 13 16 -17 18 89 0
-74 75 -76 -11 -12 13 16 -17 -18 108 0
-74 75 -76 -11 -12 13 -16 17 18 120 0
-74 75 -76 -11 -12 13 -16 17 -18 155 0
-74 75 -76 -11 -12 13 -16 -17 18 136 0
-74 75 -76 -11 -12 13 -16 -17 -18 171 0
-74 75 -76 -11 -12 -13 16 17 18 126 0
-74 75 -76 -11 -12 -13 16 17 -18 88 0
-74 75 -76 -11 -12 -13 16 -17 18 124 0
-74 75 -76 -11 -12 -13 16 -17 -18 80 0
-74 75 -76 -11 -12 -13 -16 17 18 121 0
-74 75 -76 -11 -12 -13 -16 17 -18 92 0
-74 75 -76 -11 -12 -13 -16 -17 18 182 0
-74 75 -76 -11 -12 -13 -16 -17 -18 141 0
-74 -75 76 11 12 13 16 17 18 172 0
-74 -75 76 11 12 13 16 17 -18 99 0
-74 -75 76 11 12 13 16 -17 18 169 0
-74 -75 76 11 12 13 16 -17 -18 130 0
-74 -75 76 11 12 13 -16 17 18 88 0
-74 -75 76 11 12 13 -16 17 -18 168 0
-74 -75 76 11 12 13 -16 -17 18 130 0
-74 -75 76 11 12 13 -16 -17 -18 134 0
-74 -75 76 11 12 -13 16 17 18 190 0
-74 -75 76 11 12 -13 16 17 -18 174 0
-74 -75 76 11 12 -13 16 -17 18 156 0
-74 -75 76 11 12 -13 16 -17 -18 187 0
-74 -75 76 11 12 -13 -16 17 18 130 0
-74 -75 76 11 12 -13 -16 17 -18 132 0
-74 -75 76 11 12 -13 -16 -17 18 201 0
-74 -75 76 11 12 -13 -16 -17 -18 184 0
-74 -75 76 11 -12 13 16 17 18 164 0
-74 -75 76 11 -12 13 16 17 -18 109 0
-74 -75 76 11 -12 13 16 -17 18 89 0
-74 -75 76 11 -12 13 16 -17 -18 169 0
-74 -75 76 11 -12 13 -16 17 18 173 0
-74 -75 76 11 -12 13 -16 17 -18 93 0
-74 -75 76 11 -12 13 -16 -17 18 161 0
-74 -75 76 11 -12 13 -16 -17 -18 189 0
-74 -75 76 11 -12 -13 16 17 18 130 0
-74 -75 76 11 -12 -13 16 17 -18 123 0
-74 -75 76 11 -12 -13 16 -17 18 174 0
-74 -75 76 11 -12 -13 16 -17 -18 150 0
-74 -75 76 11 -12 -13 -16 17 18 124 0
-74 -75 76 11 -12 -13 -16 17 -18 151 0
-74 -75 76 11 -12 -13 -16 -17 18 183 0
-74 -75 76 11 -12 -13 -16 -17 -18 106 0
-74 -75 76 -11 12 13 16 17 18 99 0
-74 -75 76 -11 12 13 16 17 -18 81 0
-74 -75 76 -11 12 13 16 -17 18 88 0
-74 -75 76 -11 12 13 16 -17 -18 130 0
-74 -75 76 -11 12 13 -16 17 18 168 0
-74 -75 76 -11 12 13 -16 17 -18 99 0
-74 -75 76 -11 12 13 -16 -17 18 96 0
-74 -75 76 -11 12 13 -16 -17 -18 189 0
-74 -75 76 -11 12 -13 16 17 18 89 0
-74 -75 76 -11 12 -13 16 17 -18 89 0
-74 -75 76 -11 12 -13 16 -17 18 85 0
-74 -75 76 -11 12 -13 16 -17 -18 175 0
-74 -75 76 -11 12 -13 -16 17 18 136 0
-74 -75 76 -11 12 -13 -16 17 -18 201 0
-74 -75 76 -11 12 -13 -16 -17 18 186 0
-74 -75 76 -11 12 -13 -16 -17 -18 141 0
-74 -75 76 -11 -12 13 16 17 18 110 0
-74 -75 76 -11 -12 13 16 17 -18 130 0
-74 -75 76 -11 -12 13 16 -17 18 89 0
-74 -75 76 -11 -12 13 16 -17 -18 108 0
-74 -75 76 -11 -12 13 -16 17 18 175 0
-74 -75 76 -11 -12 13 -16 17 -18 84 0
-74 -75 76 -11 -12 13 -16 -17 18 91 0
-74 -75 76 -11 -12 13 -16 -17 -18 171 0
-74 -75 76 -11 -12 -13 16 17 18 126 0
-74 -75 76 -11 -12 -13 16 17 -18 88 0
-74 -75 76 -11 -12 -13 16 -17 18 124 0
-74 -75 76 -11 -12 -13 16 -17 -18 99 0
-74 -75 76 -11 -12 -13 -16 17 18 195 0
-74 -75 76 -11 -12 -13 -16 17 -18 112 0
-74 -75 76 -11 -12 -13 -16 -17 18 182 0
-74 -75 76 -11 -12 -13 -16 -17 -18 141 0
-74 -75 -76 11 12 13 16 17 18 172 0
-74 -75 -76 11 12 13 16 17 -18 99 0
-74 -75 -76 11 12 13 16 -17 18 169 0
-74 -75 -76 11 12 13 16 -17 -18 130 0
-74 -75 -76 11 12 13 -16 17 18 88 0
-74 -75 -76 11 12 13 -16 17 -18 168 0
-74 -75 -76 11 12 13 -16 -17 18 130 0
-74 -75 -76 11 12 13 -16 -17 -18 134 0
-74 -75 -76 11 12 -13 16 17 18 190 0
-74 -75 -76 11 12 -13 16 17 -18 174 0
-74 -75 -76 11 12 -13 16 -17 18 156 0
-74 -75 -76 11 12 -13 16 -17 -18 187 0
-74 -75 -76 11 12 -13 -16 17 18 130 0
-74 -75 -76 11 12 -13 -16 17 -18 132 0
-74 -75 -76 11 12 -13 -16 -17 18 130 0
-74 -75 -76 11 12 -13 -16 -17 -18 160 0
-74 -75 -76 11 -12 13 16 17 18 164 0
-74 -75 -76 11 -12 13 16 17 -18 109 0
-74 -75 -76 11 -12 13 16 -17 18 89 0
-74 -75 -76 11 -12 13 16 -17 -18 169 0
-74 -75 -76 11 -12 13 -16 17 18 173 0
-74 -75 -76 11 -12 13 -16 17 -18 93 0
-74 -75 -76 11 -12 13 -16 -17 18 131 0
-74 -75 -76 11 -12 13 -16 -17 -18 129 0
-74 -75 -76 11 -12 -13 16 17 18 130 0
-74 -75 -76 11 -12 -13 16 17 -18 123 0
-74 -75 -76 11 -12 -13 16 -17 18 174 0
-74 -75 -76 11 -12 -13 16 -17 -18 150 0
-74 -75 -76 11 -12 -13 -16 17 18 124 0
-74 -75 -76 11 -12 -13 -16 17 -18 99 0
-74 -75 -76 11 -12 -13 -16 -17 18 173 0
-74 -75 -76 11 -12 -13 -16 -17 -18 143 0
-74 -75 -76 -11 12 13 16 17 18 99 0
-74 -75 -76 -11 12 13 16 17 -18 81 0
-74 -75 -76 -11 12 13 16 -17 18 88 0
-74 -75 -76 -11 12 13 16 -17 -18 130 0
-74 -75 -76 -11 12 13 -16 17 18 168 0
-74 -75 -76 -11 12 13 -16 17 -18 99 0
-74 -75 -76 -11 12 13 -16 -17 18 127 0
-74 -75 -76 -11 12 13 -16 -17 -18 129 0
-74 -75 -76 -11 12 -13 16 17 18 89 0
-74 -75 -76 -11 12 -13 16 17 -18 89 0
-74 -75 -76 -11 12 -13 16 -17 18 85 0
-74 -75 -76 -11 12 -13 16 -17 -18 175 0
-74 -75 -76 -11 12 -13 -16 17 18 136 0
-74 -75 -76 -11 12 -13 -16 17 -18 130 0
-74 -75 -76 -11 12 -13 -16 -17 18 133 0
-74 -75 -76 -11 12 -13 -16 -17 -18 167 0
-74 -75 -76 -11 -12 13 16 17 18 110 0
-74 -75 -76 -11 -12 13 16 17 -18 130 0
-74 -75 -76 -11 -12 13 16 -17 18 89 0
-74 -75 -76 -11 -12 13 16 -17 -18 108 0
-74 -75 -76 -11 -12 13 -16 17 18 175 0
-74 -75 -76 -11 -12 13 -16 17 -18 179 0
-74 -75 -76 -11 -12 13 -16 -17 18 94 0
-74 -75 -76 -11 -12 13 -16 -17 -18 140 0
-74 -75 -76 -11 -12 -13 16 17 18 126 0
-74 -75 -76 -11 -12 -13 16 17 -18 88 0
-74 -75 -76 -11 -12 -13 16 -17 18 124 0
-74 -75 -76 -11 -12 -13 16 -17 -18 99 0
-74 -75 -76 -11 -12 -13 -16 17 18 122 0
-74 -75 -76 -11 -12 -13 -16 17 -18 103 0
-74 -75 -76 -11 -12 -13 -16 -17 18 107 0
-74 -75 -76 -11 -12 -13 -16 -17 -18 167 0
